; benchmark generated from python API
(set-info :status unknown)
(declare-fun x_months () Int)
(declare-fun x_beta () Int)
(assert
 (<= (- 1200) x_months))
(assert
 (>= 1199 x_months))
(assert
 (>= x_beta 0))
(assert
 (let ((?x4906 (+ x_months 24003)))
 (let ((?x4271 (- ?x4906 (* (div (- ?x4906 1) 12) 12))))
 (let ((?x3638 (ite (or (= ?x4271 4) (= ?x4271 6) (= ?x4271 9) (= ?x4271 11)) 30 31)))
 (let (($x1036 (and (= (mod (div (- ?x4906 1) 12) 4) 0) (and (distinct (mod (div (- ?x4906 1) 12) 100) 0) true))))
 (let ((?x4098 (ite (or $x1036 (= (mod (div (- ?x4906 1) 12) 400) 0)) 29 28)))
 (< x_beta (ite (= ?x4271 2) ?x4098 ?x3638))))))))
(assert
 (let (($x4632 (and (= x_months (- (+ (* 2023 12) 1) 24003)) (<= 30 x_beta))))
 (or (> x_months (- (+ (* 2023 12) 1) 24003)) $x4632)))
(assert
 (let ((?x4016 (+ x_beta 1)))
(let ((?x1754 (+ (+ x_months 1) 24003)))
(let ((?x4592 (- ?x1754 (* (div (- ?x1754 1) 12) 12))))
(let ((?x3785 (ite (or (= ?x4592 4) (= ?x4592 6) (= ?x4592 9) (= ?x4592 11)) 30 31)))
(let (($x853 (and (= (mod (div (- ?x1754 1) 12) 4) 0) (and (distinct (mod (div (- ?x1754 1) 12) 100) 0) true))))
(let (($x1024 (or $x853 (= (mod (div (- ?x1754 1) 12) 400) 0))))
(let ((?x5384 (ite (= ?x4592 2) (ite $x1024 29 28) ?x3785)))
(let ((?x5365 (ite (> 1 ?x4016) 1 (ite (> ?x4016 ?x5384) ?x5384 ?x4016))))
(let ((?x1919 (ite (> 1 ?x5365) 1 (ite (> ?x5365 ?x5384) ?x5384 ?x5365))))
(let ((?x4156 (ite (= 2 ?x4592) (ite $x1024 31 31) (ite (= 1 ?x4592) (ite $x1024 0 0) 0))))
(let ((?x1716 (ite (= 4 ?x4592) (ite $x1024 91 90) (ite (= 3 ?x4592) (ite $x1024 60 59) ?x4156))))
(let ((?x4467 (ite (= 6 ?x4592) (ite $x1024 152 151) (ite (= 5 ?x4592) (ite $x1024 121 120) ?x1716))))
(let ((?x4244 (ite (= 8 ?x4592) (ite $x1024 213 212) (ite (= 7 ?x4592) (ite $x1024 182 181) ?x4467))))
(let ((?x2311 (ite (= 10 ?x4592) (ite $x1024 274 273) (ite (= 9 ?x4592) (ite $x1024 244 243) ?x4244))))
(let ((?x2991 (ite (= 12 ?x4592) (ite $x1024 335 334) (ite (= 11 ?x4592) (ite $x1024 305 304) ?x2311))))
(let ((?x456 (+ (* 365 (- (div (- ?x1754 1) 12) 1)) (div (- (div (- ?x1754 1) 12) 1) 4))))
(let ((?x3759 (+ (- ?x456 (div (- (div (- ?x1754 1) 12) 1) 100)) (div (- (div (- ?x1754 1) 12) 1) 400))))
(let ((?x3225 (+ (+ (- (+ (+ ?x3759 ?x2991) (- ?x1919 1)) 730179) 0) 730179)))
(let ((?x4921 (mod ?x3225 146097)))
(let ((?x937 (div ?x4921 36524)))
(let ((?x4538 (ite (<= 4 ?x937) 3 ?x937)))
(let ((?x1748 (- ?x4921 (* ?x4538 36524))))
(let ((?x1982 (mod ?x1748 1461)))
(let ((?x2408 (div ?x1982 365)))
(let ((?x4116 (ite (<= 4 ?x2408) 3 ?x2408)))
(let ((?x4489 (+ (+ (* (div ?x3225 146097) 400) (* ?x4538 100)) (* (div ?x1748 1461) 4))))
(let ((?x914 (+ (+ ?x4489 ?x4116) 1)))
(let (($x3124 (or (and (= (mod ?x914 4) 0) (and (distinct (mod ?x914 100) 0) true)) (= (mod ?x914 400) 0))))
(let ((?x4458 (- ?x1982 (* ?x4116 365))))
(let ((?x3994 (ite $x3124 31 31)))
(let (($x3865 (>= ?x4458 ?x3994)))
(let ((?x1779 (ite $x3865 (+ (- ?x4458 ?x3994) 1) (+ (- ?x4458 (ite $x3124 0 0)) 1))))
(let ((?x1656 (ite $x3124 60 59)))
(let (($x5475 (>= ?x4458 ?x1656)))
(let ((?x2732 (ite $x3124 91 90)))
(let (($x3607 (>= ?x4458 ?x2732)))
(let ((?x2892 (ite $x3607 (+ (- ?x4458 ?x2732) 1) (ite $x5475 (+ (- ?x4458 ?x1656) 1) ?x1779))))
(let ((?x3862 (ite $x3124 121 120)))
(let (($x4878 (>= ?x4458 ?x3862)))
(let ((?x1404 (ite $x3124 152 151)))
(let (($x2243 (>= ?x4458 ?x1404)))
(let ((?x3883 (ite $x2243 (+ (- ?x4458 ?x1404) 1) (ite $x4878 (+ (- ?x4458 ?x3862) 1) ?x2892))))
(let ((?x412 (ite $x3124 182 181)))
(let (($x713 (>= ?x4458 ?x412)))
(let ((?x2712 (ite $x3124 213 212)))
(let (($x2122 (>= ?x4458 ?x2712)))
(let ((?x2124 (ite $x2122 (+ (- ?x4458 ?x2712) 1) (ite $x713 (+ (- ?x4458 ?x412) 1) ?x3883))))
(let ((?x3618 (ite $x3124 244 243)))
(let (($x956 (>= ?x4458 ?x3618)))
(let ((?x2211 (ite $x3124 274 273)))
(let (($x3337 (>= ?x4458 ?x2211)))
(let ((?x543 (ite $x3337 (+ (- ?x4458 ?x2211) 1) (ite $x956 (+ (- ?x4458 ?x3618) 1) ?x2124))))
(let ((?x3956 (ite $x3124 305 304)))
(let (($x4513 (>= ?x4458 ?x3956)))
(let ((?x3400 (ite $x3124 335 334)))
(let (($x2055 (>= ?x4458 ?x3400)))
(let ((?x4246 (ite $x2055 (+ (- ?x4458 ?x3400) 1) (ite $x4513 (+ (- ?x4458 ?x3956) 1) ?x543))))
(let (($x964 (= 0 0)))
(let ((?x3288 (- (+ (* 2023 12) 3) 24003)))
(let ((?x4307 (ite $x4878 5 (ite $x3607 4 (ite $x5475 3 (ite $x3865 2 1))))))
(let ((?x1170 (ite $x956 9 (ite $x2122 8 (ite $x713 7 (ite $x2243 6 ?x4307))))))
(let ((?x2313 (+ (* (ite $x964 (div (- ?x1754 1) 12) ?x914) 12) (ite $x964 ?x4592 (ite $x2055 12 (ite $x4513 11 (ite $x3337 10 ?x1170)))))))
(let ((?x1876 (- ?x2313 24003)))
(or (< ?x1876 ?x3288) (and (= ?x1876 ?x3288) (>= 0 (- (ite $x964 ?x1919 ?x4246) 1))))))))))))))))))))))))))))))))))))))))))))))))))))))))))))))))))))
(check-sat)
